c A SAT instance generated from a 3-CNF formula that had 52 clauses and 13 variables
p cnf 13 52
1 2 -13 0
2 5 -8 0
-6 -12 13 0
-10 9 -1 0
12 1 13 0
-3 11 9 0
9 -13 4 0
-10 8 -1 0
4 -11 12 0
-10 12 7 0
4 -6 -1 0
-13 4 -11 0
12 -3 4 0
11 4 6 0
-4 11 10 0
-9 -7 -12 0
9 11 -2 0
-10 -5 -13 0
12 6 -11 0
-3 1 10 0
-8 -12 1 0
8 -10 -6 0
1 -3 13 0
2 13 -1 0
-9 13 12 0
-5 -8 -11 0
-6 3 8 0
-7 -12 -6 0
-8 -9 12 0
-2 -3 13 0
-10 -3 13 0
-8 11 -9 0
11 5 12 0
6 5 12 0
11 12 -5 0
7 11 13 0
-13 -10 11 0
3 13 -9 0
-10 -12 4 0
-7 -5 11 0
-10 3 -4 0
5 -1 -13 0
-2 4 12 0
11 7 -12 0
5 -1 -10 0
12 -11 -3 0
4 -13 9 0
-10 -4 -8 0
11 -5 -2 0
-11 1 -8 0
-10 -13 -12 0
4 5 -3 0
